data;

param n:=25;
param p:=3;
param r:=[1] 0 [2] 2 [3] 5 [4] 5 [5] 5 [6] 2 [7] 11 [8] 13 [9] 22 [10] 7 [11] 10 [12] 6 [13] 35 [14] 0 [15] 23 [16] 45 [17] 21 [18] 42 [19] 32 [20] 5 [21] 59 [22] 22 [23] 17 [24] 19 [25] 29 ;
param w:=[1] 62 [2] 86 [3] 23 [4] 96 [5] 82 [6] 90 [7] 45 [8] 19 [9] 71 [10] 5 [11] 29 [12] 100 [13] 43 [14] 9 [15] 44 [16] 96 [17] 15 [18] 12 [19] 90 [20] 72 [21] 83 [22] 19 [23] 100 [24] 16 [25] 71 ;

end;
